words_easy_train/words_779_SAT.qaiger
aag 29 16 0 1 13
2
14
16
18
22
30
28
10
32
20
26
24
4
8
12
6
58
34 22 20
36 34 18
38 36 16
40 39 25
42 23 21
44 42 19
46 44 17
48 47 24
50 32 28
52 50 30
54 52 27
56 54 49
58 56 41
i0 1 x1[0]
i1 1 x1[6]
i2 1 x1[7]
i3 2 y2[0]
i4 2 y2[2]
i5 2 y2[6]
i6 2 y2[5]
i7 1 x1[4]
i8 2 y2[7]
i9 2 y2[1]
i10 2 y2[4]
i11 2 y2[3]
i12 1 x1[1]
i13 1 x1[3]
i14 1 x1[5]
i15 1 x1[2]
o0 bool[0]
c
simplified
  ==
    >> 7
      1 x1
    subtract
      2 y2
      232
