words_easy_train/words_779_SAT.qaiger.qdimacs
p cnf 29 40
a 1 2 3 4 5 6 7 8 0
e 9 10 11 12 13 14 15 16 17 18 19 20 21 22 23 24 25 26 27 28 29 0
-11 -10 17 0
11 -17 0
10 -17 0
-17 -9 18 0
17 -18 0
9 -18 0
-18 -8 19 0
18 -19 0
8 -19 0
19 12 20 0
-19 -20 0
-12 -20 0
11 10 21 0
-11 -21 0
-10 -21 0
-21 9 22 0
21 -22 0
-9 -22 0
-22 8 23 0
22 -23 0
-8 -23 0
23 -12 24 0
-23 -24 0
12 -24 0
-16 -14 25 0
16 -25 0
14 -25 0
-25 -15 26 0
25 -26 0
15 -26 0
-26 13 27 0
26 -27 0
-13 -27 0
-27 24 28 0
27 -28 0
-24 -28 0
-28 20 29 0
28 -29 0
-20 -29 0
29 0
